generation,value,overweight
1,8672,5065
2,9538,3690
3,8950,1338
4,7796,582
5,6904,230
6,6768,0
7,6768,0
8,7237,0
9,7306,0
10,7674,35
11,7645,0
12,7913,0
13,8036,0
14,8036,0
15,8312,4
16,8312,4
17,8344,0
18,8344,0
19,8344,0
20,8344,0
21,8344,0
22,8344,0
23,8373,0
24,8373,0
25,8373,0
26,8373,0
27,8373,0
28,8482,6
29,8482,6
30,8482,6
31,8482,6
32,8482,6
33,8482,6
34,8482,6
35,8482,6
36,8482,6
37,8482,6
38,8482,6
39,8482,6
40,8482,6
41,8482,6
42,8482,6
43,8482,6
44,8482,6
45,8482,6
46,8482,6
47,8482,6
48,8482,6
49,8482,6
50,8482,6
